# 49074
param n := 30;
param s := 1;
set E :=  (0,8) (1,3) (2,4) (2,20) (3,6) (3,13) (3,24) (4,22) (5,9) (5,27) (6,14) (7,15) (7,26) (8,23) (9,14) (10,20) (10,21) (10,25) (10,27) (10,29) (11,22) (12,22) (13,27) (14,26) (15,17) (16,22) (18,19) (19,23) (21,23) (27,28);
